(set-logic QF_FPABV)
(declare-fun b2460 () (_ FP 11 53))
(declare-fun b2525 () (_ FP 11 53))
(declare-fun b2122 () (_ FP 11 53))
(declare-fun b2617 () (_ FP 11 53))
(declare-fun b2606 () (_ FP 11 53))
(declare-fun b2653 () (_ FP 11 53))
(declare-fun b2328 () (_ FP 11 53))
(declare-fun b2247 () (_ FP 11 53))
(declare-fun b2152 () (_ FP 11 53))
(declare-fun b2050 () (_ FP 11 53))
(declare-fun b385 () (_ FP 11 53))
(declare-fun b2217 () (_ FP 11 53))
(declare-fun b2400 () (_ FP 11 53))
(declare-fun b2375 () (_ FP 11 53))
(declare-fun b388 () (_ FP 11 53))
(declare-fun b2586 () (_ FP 11 53))
(declare-fun b2520 () (_ FP 11 53))
(declare-fun b958 () (_ FP 11 53))
(declare-fun b2648 () (_ FP 11 53))
(declare-fun b2242 () (_ FP 11 53))
(declare-fun b2768 () (_ FP 11 53))
(declare-fun b2803 () (_ FP 11 53))
(declare-fun b2157 () (_ FP 11 53))
(declare-fun b2490 () (_ FP 11 53))
(declare-fun b2864 () (_ FP 11 53))
(declare-fun b2187 () (_ FP 11 53))
(declare-fun b2066 () (_ FP 11 53))
(declare-fun b2182 () (_ FP 11 53))
(declare-fun b2272 () (_ FP 11 53))
(declare-fun b2097 () (_ FP 11 53))
(declare-fun b2430 () (_ FP 11 53))
(declare-fun b2061 () (_ FP 11 53))
(declare-fun b2308 () (_ FP 11 53))
(declare-fun b2708 () (_ FP 11 53))
(declare-fun b2092 () (_ FP 11 53))
(declare-fun b2435 () (_ FP 11 53))
(declare-fun b2713 () (_ FP 11 53))
(declare-fun b2874 () (_ FP 11 53))
(declare-fun b2405 () (_ FP 11 53))
(declare-fun b354 () (_ FP 11 53))
(declare-fun b2212 () (_ FP 11 53))
(declare-fun b2495 () (_ FP 11 53))
(declare-fun b376 () (_ FP 11 53))
(declare-fun b2828 () (_ FP 11 53))
(declare-fun b2738 () (_ FP 11 53))
(declare-fun b2465 () (_ FP 11 53))
(declare-fun b2127 () (_ FP 11 53))
(declare-fun b2550 () (_ FP 11 53))
(declare-fun b2339 () (_ FP 11 53))
(declare-fun b2743 () (_ FP 11 53))
(declare-fun b2798 () (_ FP 11 53))
(declare-fun b2683 () (_ FP 11 53))
(declare-fun b2370 () (_ FP 11 53))
(declare-fun b2678 () (_ FP 11 53))
(declare-fun b2596 () (_ FP 11 53))
(declare-fun b2318 () (_ FP 11 53))
(declare-fun b2773 () (_ FP 11 53))
(declare-fun b342 () (_ FP 11 53))
(declare-fun b2344 () (_ FP 11 53))
(declare-fun b2622 () (_ FP 11 53))
(define-fun .3 () RoundingMode roundNearestTiesToEven)
(define-fun .9 () (_ FP 11 53) b2066)
(define-fun .10 () (_ FP 11 53) b376)
(define-fun .11 () (_ FP 11 53) (* .3 .9 .10))
(define-fun .12 () (_ FP 11 53) (* .3 .9 .9))
(define-fun .13 () (_ FP 11 53) (- .12))
(define-fun .14 () (_ FP 11 53) b958)
(define-fun .15 () (_ FP 11 53) (+ .3 .13 .14))
(define-fun .16 () (_ FP 11 53) (/ .3 .15 .11))
(define-fun .17 () (_ FP 11 53) (+ .3 .9 .16))
(define-fun .18 () (_ FP 11 53) b2050)
(define-fun .19 () Bool (= .17 .18))
(define-fun .20 () Bool (not .19))
(define-fun .21 () (_ FP 11 53) b2097)
(define-fun .22 () (_ FP 11 53) (* .3 .10 .21))
(define-fun .23 () (_ FP 11 53) (* .3 .21 .21))
(define-fun .24 () (_ FP 11 53) (- .23))
(define-fun .25 () (_ FP 11 53) (+ .3 .14 .24))
(define-fun .26 () (_ FP 11 53) (/ .3 .25 .22))
(define-fun .27 () (_ FP 11 53) (+ .3 .21 .26))
(define-fun .28 () Bool (= .9 .27))
(define-fun .29 () Bool (not .28))
(define-fun .30 () (_ FP 11 53) (* .3 .17 .17))
(define-fun .31 () (_ FP 11 53) (- .30))
(define-fun .32 () (_ FP 11 53) (+ .3 .14 .31))
(define-fun .33 () (_ FP 11 53) b2092)
(define-fun .34 () Bool (= .32 .33))
(define-fun .35 () Bool (not .34))
(define-fun .36 () (_ FP 11 53) (* .3 .27 .27))
(define-fun .37 () (_ FP 11 53) (- .36))
(define-fun .38 () (_ FP 11 53) (+ .3 .14 .37))
(define-fun .39 () (_ FP 11 53) b2122)
(define-fun .40 () Bool (= .38 .39))
(define-fun .41 () Bool (not .40))
(define-fun .42 () (_ FP 11 53) b2127)
(define-fun .43 () (_ FP 11 53) (* .3 .10 .42))
(define-fun .44 () (_ FP 11 53) (* .3 .42 .42))
(define-fun .45 () (_ FP 11 53) (- .44))
(define-fun .46 () (_ FP 11 53) (+ .3 .14 .45))
(define-fun .47 () (_ FP 11 53) (/ .3 .46 .43))
(define-fun .48 () (_ FP 11 53) (+ .3 .42 .47))
(define-fun .49 () Bool (= .21 .48))
(define-fun .50 () Bool (not .49))
(define-fun .51 () (_ FP 11 53) (* .3 .48 .48))
(define-fun .52 () (_ FP 11 53) (- .51))
(define-fun .53 () (_ FP 11 53) (+ .3 .14 .52))
(define-fun .54 () (_ FP 11 53) b2152)
(define-fun .55 () Bool (= .53 .54))
(define-fun .56 () Bool (not .55))
(define-fun .57 () (_ FP 11 53) b2157)
(define-fun .58 () (_ FP 11 53) (* .3 .10 .57))
(define-fun .59 () (_ FP 11 53) (* .3 .57 .57))
(define-fun .60 () (_ FP 11 53) (- .59))
(define-fun .61 () (_ FP 11 53) (+ .3 .14 .60))
(define-fun .62 () (_ FP 11 53) (/ .3 .61 .58))
(define-fun .63 () (_ FP 11 53) (+ .3 .57 .62))
(define-fun .64 () Bool (= .42 .63))
(define-fun .65 () Bool (not .64))
(define-fun .66 () (_ FP 11 53) (* .3 .63 .63))
(define-fun .67 () (_ FP 11 53) (- .66))
(define-fun .68 () (_ FP 11 53) (+ .3 .14 .67))
(define-fun .69 () (_ FP 11 53) b2182)
(define-fun .70 () Bool (= .68 .69))
(define-fun .71 () Bool (not .70))
(define-fun .72 () (_ FP 11 53) (* .3 .10 .18))
(define-fun .73 () (_ FP 11 53) (* .3 .18 .18))
(define-fun .74 () (_ FP 11 53) (- .73))
(define-fun .75 () (_ FP 11 53) (+ .3 .14 .74))
(define-fun .76 () (_ FP 11 53) (/ .3 .75 .72))
(define-fun .77 () (_ FP 11 53) (+ .3 .18 .76))
(define-fun .78 () (_ FP 11 53) (* .3 .77 .77))
(define-fun .79 () (_ FP 11 53) (- .78))
(define-fun .80 () (_ FP 11 53) (+ .3 .14 .79))
(define-fun .81 () (_ FP 11 53) b2061)
(define-fun .82 () Bool (= .80 .81))
(define-fun .83 () Bool (not .82))
(define-fun .84 () (_ FP 11 53) b2187)
(define-fun .85 () (_ FP 11 53) (* .3 .10 .84))
(define-fun .86 () (_ FP 11 53) (* .3 .84 .84))
(define-fun .87 () (_ FP 11 53) (- .86))
(define-fun .88 () (_ FP 11 53) (+ .3 .14 .87))
(define-fun .89 () (_ FP 11 53) (/ .3 .88 .85))
(define-fun .90 () (_ FP 11 53) (+ .3 .84 .89))
(define-fun .91 () Bool (= .57 .90))
(define-fun .92 () Bool (not .91))
(define-fun .93 () (_ FP 11 53) (* .3 .90 .90))
(define-fun .94 () (_ FP 11 53) (- .93))
(define-fun .95 () (_ FP 11 53) (+ .3 .14 .94))
(define-fun .96 () (_ FP 11 53) b2212)
(define-fun .97 () Bool (= .95 .96))
(define-fun .98 () Bool (not .97))
(define-fun .99 () (_ FP 11 53) b2217)
(define-fun .100 () (_ FP 11 53) (* .3 .10 .99))
(define-fun .101 () (_ FP 11 53) (* .3 .99 .99))
(define-fun .102 () (_ FP 11 53) (- .101))
(define-fun .103 () (_ FP 11 53) (+ .3 .14 .102))
(define-fun .104 () (_ FP 11 53) (/ .3 .103 .100))
(define-fun .105 () (_ FP 11 53) (+ .3 .99 .104))
(define-fun .106 () Bool (= .84 .105))
(define-fun .107 () Bool (not .106))
(define-fun .108 () (_ FP 11 53) (* .3 .105 .105))
(define-fun .109 () (_ FP 11 53) (- .108))
(define-fun .110 () (_ FP 11 53) (+ .3 .14 .109))
(define-fun .111 () (_ FP 11 53) b2242)
(define-fun .112 () Bool (= .110 .111))
(define-fun .113 () Bool (not .112))
(define-fun .114 () (_ FP 11 53) b2247)
(define-fun .115 () (_ FP 11 53) (* .3 .10 .114))
(define-fun .116 () (_ FP 11 53) (* .3 .114 .114))
(define-fun .117 () (_ FP 11 53) (- .116))
(define-fun .118 () (_ FP 11 53) (+ .3 .14 .117))
(define-fun .119 () (_ FP 11 53) (/ .3 .118 .115))
(define-fun .120 () (_ FP 11 53) (+ .3 .114 .119))
(define-fun .121 () Bool (= .99 .120))
(define-fun .122 () Bool (not .121))
(define-fun .123 () (_ FP 11 53) (* .3 .120 .120))
(define-fun .124 () (_ FP 11 53) (- .123))
(define-fun .125 () (_ FP 11 53) (+ .3 .14 .124))
(define-fun .126 () (_ FP 11 53) b2272)
(define-fun .127 () Bool (= .125 .126))
(define-fun .128 () Bool (not .127))
(define-fun .129 () (_ FP 11 53) b385)
(define-fun .130 () (_ FP 11 53) (/ .3 .14 .129))
(define-fun .131 () (_ FP 11 53) (* .3 .10 .130))
(define-fun .132 () (_ FP 11 53) (* .3 .130 .130))
(define-fun .133 () (_ FP 11 53) (- .132))
(define-fun .134 () (_ FP 11 53) (+ .3 .14 .133))
(define-fun .135 () (_ FP 11 53) (/ .3 .134 .131))
(define-fun .136 () (_ FP 11 53) (+ .3 .130 .135))
(define-fun .137 () Bool (= .114 .136))
(define-fun .138 () Bool (not .137))
(define-fun .139 () (_ FP 11 53) (* .3 .10 .136))
(define-fun .140 () (_ FP 11 53) (* .3 .136 .136))
(define-fun .141 () (_ FP 11 53) (- .140))
(define-fun .142 () (_ FP 11 53) (+ .3 .14 .141))
(define-fun .143 () (_ FP 11 53) (/ .3 .142 .139))
(define-fun .144 () (_ FP 11 53) (+ .3 .136 .143))
(define-fun .145 () (_ FP 11 53) (* .3 .144 .144))
(define-fun .146 () (_ FP 11 53) (- .145))
(define-fun .147 () (_ FP 11 53) (+ .3 .14 .146))
(define-fun .148 () (_ FP 11 53) b2308)
(define-fun .149 () Bool (= .147 .148))
(define-fun .150 () Bool (not .149))
(define-fun .151 () (_ FP 11 53) b2318)
(define-fun .152 () Bool (= .142 .151))
(define-fun .153 () Bool (not .152))
(define-fun .154 () (_ FP 11 53) b2328)
(define-fun .155 () (_ FP 11 53) (* .3 .10 .154))
(define-fun .156 () (_ FP 11 53) (* .3 .154 .154))
(define-fun .157 () (_ FP 11 53) (- .156))
(define-fun .158 () (_ FP 11 53) b342)
(define-fun .159 () (_ FP 11 53) (+ .3 .157 .158))
(define-fun .160 () (_ FP 11 53) (/ .3 .159 .155))
(define-fun .161 () (_ FP 11 53) (+ .3 .154 .160))
(define-fun .162 () (_ FP 11 53) (* .3 .161 .161))
(define-fun .163 () (_ FP 11 53) (- .162))
(define-fun .164 () (_ FP 11 53) (+ .3 .158 .163))
(define-fun .165 () (_ FP 11 53) b2339)
(define-fun .166 () Bool (= .164 .165))
(define-fun .167 () Bool (not .166))
(define-fun .168 () (_ FP 11 53) b2344)
(define-fun .169 () (_ FP 11 53) (* .3 .10 .168))
(define-fun .170 () (_ FP 11 53) (* .3 .168 .168))
(define-fun .171 () (_ FP 11 53) (- .170))
(define-fun .172 () (_ FP 11 53) (+ .3 .158 .171))
(define-fun .173 () (_ FP 11 53) (/ .3 .172 .169))
(define-fun .174 () (_ FP 11 53) (+ .3 .168 .173))
(define-fun .175 () Bool (= .154 .174))
(define-fun .176 () Bool (not .175))
(define-fun .177 () (_ FP 11 53) (* .3 .174 .174))
(define-fun .178 () (_ FP 11 53) (- .177))
(define-fun .179 () (_ FP 11 53) (+ .3 .158 .178))
(define-fun .180 () (_ FP 11 53) b2370)
(define-fun .181 () Bool (= .179 .180))
(define-fun .182 () Bool (not .181))
(define-fun .183 () (_ FP 11 53) b2375)
(define-fun .184 () (_ FP 11 53) (* .3 .10 .183))
(define-fun .185 () (_ FP 11 53) (* .3 .183 .183))
(define-fun .186 () (_ FP 11 53) (- .185))
(define-fun .187 () (_ FP 11 53) (+ .3 .158 .186))
(define-fun .188 () (_ FP 11 53) (/ .3 .187 .184))
(define-fun .189 () (_ FP 11 53) (+ .3 .183 .188))
(define-fun .190 () Bool (= .168 .189))
(define-fun .191 () Bool (not .190))
(define-fun .192 () (_ FP 11 53) (* .3 .189 .189))
(define-fun .193 () (_ FP 11 53) (- .192))
(define-fun .194 () (_ FP 11 53) (+ .3 .158 .193))
(define-fun .195 () (_ FP 11 53) b2400)
(define-fun .196 () Bool (= .194 .195))
(define-fun .197 () Bool (not .196))
(define-fun .198 () (_ FP 11 53) b2405)
(define-fun .199 () (_ FP 11 53) (* .3 .10 .198))
(define-fun .200 () (_ FP 11 53) (* .3 .198 .198))
(define-fun .201 () (_ FP 11 53) (- .200))
(define-fun .202 () (_ FP 11 53) (+ .3 .158 .201))
(define-fun .203 () (_ FP 11 53) (/ .3 .202 .199))
(define-fun .204 () (_ FP 11 53) (+ .3 .198 .203))
(define-fun .205 () Bool (= .183 .204))
(define-fun .206 () Bool (not .205))
(define-fun .207 () (_ FP 11 53) (* .3 .204 .204))
(define-fun .208 () (_ FP 11 53) (- .207))
(define-fun .209 () (_ FP 11 53) (+ .3 .158 .208))
(define-fun .210 () (_ FP 11 53) b2430)
(define-fun .211 () Bool (= .209 .210))
(define-fun .212 () Bool (not .211))
(define-fun .213 () (_ FP 11 53) b2435)
(define-fun .214 () (_ FP 11 53) (* .3 .10 .213))
(define-fun .215 () (_ FP 11 53) (* .3 .213 .213))
(define-fun .216 () (_ FP 11 53) (- .215))
(define-fun .217 () (_ FP 11 53) (+ .3 .158 .216))
(define-fun .218 () (_ FP 11 53) (/ .3 .217 .214))
(define-fun .219 () (_ FP 11 53) (+ .3 .213 .218))
(define-fun .220 () Bool (= .198 .219))
(define-fun .221 () Bool (not .220))
(define-fun .222 () (_ FP 11 53) (* .3 .219 .219))
(define-fun .223 () (_ FP 11 53) (- .222))
(define-fun .224 () (_ FP 11 53) (+ .3 .158 .223))
(define-fun .225 () (_ FP 11 53) b2460)
(define-fun .226 () Bool (= .224 .225))
(define-fun .227 () Bool (not .226))
(define-fun .228 () (_ FP 11 53) b2465)
(define-fun .229 () (_ FP 11 53) (* .3 .10 .228))
(define-fun .230 () (_ FP 11 53) (* .3 .228 .228))
(define-fun .231 () (_ FP 11 53) (- .230))
(define-fun .232 () (_ FP 11 53) (+ .3 .158 .231))
(define-fun .233 () (_ FP 11 53) (/ .3 .232 .229))
(define-fun .234 () (_ FP 11 53) (+ .3 .228 .233))
(define-fun .235 () Bool (= .213 .234))
(define-fun .236 () Bool (not .235))
(define-fun .237 () (_ FP 11 53) (* .3 .234 .234))
(define-fun .238 () (_ FP 11 53) (- .237))
(define-fun .239 () (_ FP 11 53) (+ .3 .158 .238))
(define-fun .240 () (_ FP 11 53) b2490)
(define-fun .241 () Bool (= .239 .240))
(define-fun .242 () Bool (not .241))
(define-fun .243 () (_ FP 11 53) b2495)
(define-fun .244 () (_ FP 11 53) (* .3 .10 .243))
(define-fun .245 () (_ FP 11 53) (* .3 .243 .243))
(define-fun .246 () (_ FP 11 53) (- .245))
(define-fun .247 () (_ FP 11 53) (+ .3 .158 .246))
(define-fun .248 () (_ FP 11 53) (/ .3 .247 .244))
(define-fun .249 () (_ FP 11 53) (+ .3 .243 .248))
(define-fun .250 () Bool (= .228 .249))
(define-fun .251 () Bool (not .250))
(define-fun .252 () (_ FP 11 53) (* .3 .249 .249))
(define-fun .253 () (_ FP 11 53) (- .252))
(define-fun .254 () (_ FP 11 53) (+ .3 .158 .253))
(define-fun .255 () (_ FP 11 53) b2520)
(define-fun .256 () Bool (= .254 .255))
(define-fun .257 () Bool (not .256))
(define-fun .258 () (_ FP 11 53) b2525)
(define-fun .259 () (_ FP 11 53) (* .3 .10 .258))
(define-fun .260 () (_ FP 11 53) (* .3 .258 .258))
(define-fun .261 () (_ FP 11 53) (- .260))
(define-fun .262 () (_ FP 11 53) (+ .3 .158 .261))
(define-fun .263 () (_ FP 11 53) (/ .3 .262 .259))
(define-fun .264 () (_ FP 11 53) (+ .3 .258 .263))
(define-fun .265 () Bool (= .243 .264))
(define-fun .266 () Bool (not .265))
(define-fun .267 () (_ FP 11 53) (* .3 .264 .264))
(define-fun .268 () (_ FP 11 53) (- .267))
(define-fun .269 () (_ FP 11 53) (+ .3 .158 .268))
(define-fun .270 () (_ FP 11 53) b2550)
(define-fun .271 () Bool (= .269 .270))
(define-fun .272 () Bool (not .271))
(define-fun .273 () (_ FP 11 53) (/ .3 .158 .129))
(define-fun .274 () (_ FP 11 53) (* .3 .10 .273))
(define-fun .275 () (_ FP 11 53) (* .3 .273 .273))
(define-fun .276 () (_ FP 11 53) (- .275))
(define-fun .277 () (_ FP 11 53) (+ .3 .158 .276))
(define-fun .278 () (_ FP 11 53) (/ .3 .277 .274))
(define-fun .279 () (_ FP 11 53) (+ .3 .273 .278))
(define-fun .280 () Bool (= .258 .279))
(define-fun .281 () Bool (not .280))
(define-fun .282 () (_ FP 11 53) (* .3 .10 .279))
(define-fun .283 () (_ FP 11 53) (* .3 .279 .279))
(define-fun .284 () (_ FP 11 53) (- .283))
(define-fun .285 () (_ FP 11 53) (+ .3 .158 .284))
(define-fun .286 () (_ FP 11 53) (/ .3 .285 .282))
(define-fun .287 () (_ FP 11 53) (+ .3 .279 .286))
(define-fun .288 () (_ FP 11 53) (* .3 .287 .287))
(define-fun .289 () (_ FP 11 53) (- .288))
(define-fun .290 () (_ FP 11 53) (+ .3 .158 .289))
(define-fun .291 () (_ FP 11 53) b2586)
(define-fun .292 () Bool (= .290 .291))
(define-fun .293 () Bool (not .292))
(define-fun .294 () (_ FP 11 53) b2596)
(define-fun .295 () Bool (= .285 .294))
(define-fun .296 () Bool (not .295))
(define-fun .297 () (_ FP 11 53) b2606)
(define-fun .298 () (_ FP 11 53) (* .3 .10 .297))
(define-fun .299 () (_ FP 11 53) (* .3 .297 .297))
(define-fun .300 () (_ FP 11 53) (- .299))
(define-fun .301 () (_ FP 11 53) b354)
(define-fun .302 () (_ FP 11 53) (+ .3 .300 .301))
(define-fun .303 () (_ FP 11 53) (/ .3 .302 .298))
(define-fun .304 () (_ FP 11 53) (+ .3 .297 .303))
(define-fun .305 () (_ FP 11 53) (* .3 .304 .304))
(define-fun .306 () (_ FP 11 53) (- .305))
(define-fun .307 () (_ FP 11 53) (+ .3 .301 .306))
(define-fun .308 () (_ FP 11 53) b2617)
(define-fun .309 () Bool (= .307 .308))
(define-fun .310 () Bool (not .309))
(define-fun .311 () (_ FP 11 53) b2622)
(define-fun .312 () (_ FP 11 53) (* .3 .10 .311))
(define-fun .313 () (_ FP 11 53) (* .3 .311 .311))
(define-fun .314 () (_ FP 11 53) (- .313))
(define-fun .315 () (_ FP 11 53) (+ .3 .301 .314))
(define-fun .316 () (_ FP 11 53) (/ .3 .315 .312))
(define-fun .317 () (_ FP 11 53) (+ .3 .311 .316))
(define-fun .318 () Bool (= .297 .317))
(define-fun .319 () Bool (not .318))
(define-fun .320 () (_ FP 11 53) (* .3 .317 .317))
(define-fun .321 () (_ FP 11 53) (- .320))
(define-fun .322 () (_ FP 11 53) (+ .3 .301 .321))
(define-fun .323 () (_ FP 11 53) b2648)
(define-fun .324 () Bool (= .322 .323))
(define-fun .325 () Bool (not .324))
(define-fun .326 () (_ FP 11 53) b2653)
(define-fun .327 () (_ FP 11 53) (* .3 .10 .326))
(define-fun .328 () (_ FP 11 53) (* .3 .326 .326))
(define-fun .329 () (_ FP 11 53) (- .328))
(define-fun .330 () (_ FP 11 53) (+ .3 .301 .329))
(define-fun .331 () (_ FP 11 53) (/ .3 .330 .327))
(define-fun .332 () (_ FP 11 53) (+ .3 .326 .331))
(define-fun .333 () Bool (= .311 .332))
(define-fun .334 () Bool (not .333))
(define-fun .335 () (_ FP 11 53) (* .3 .332 .332))
(define-fun .336 () (_ FP 11 53) (- .335))
(define-fun .337 () (_ FP 11 53) (+ .3 .301 .336))
(define-fun .338 () (_ FP 11 53) b2678)
(define-fun .339 () Bool (= .337 .338))
(define-fun .340 () Bool (not .339))
(define-fun .341 () (_ FP 11 53) b2683)
(define-fun .342 () (_ FP 11 53) (* .3 .10 .341))
(define-fun .343 () (_ FP 11 53) (* .3 .341 .341))
(define-fun .344 () (_ FP 11 53) (- .343))
(define-fun .345 () (_ FP 11 53) (+ .3 .301 .344))
(define-fun .346 () (_ FP 11 53) (/ .3 .345 .342))
(define-fun .347 () (_ FP 11 53) (+ .3 .341 .346))
(define-fun .348 () Bool (= .326 .347))
(define-fun .349 () Bool (not .348))
(define-fun .350 () (_ FP 11 53) (* .3 .347 .347))
(define-fun .351 () (_ FP 11 53) (- .350))
(define-fun .352 () (_ FP 11 53) (+ .3 .301 .351))
(define-fun .353 () (_ FP 11 53) b2708)
(define-fun .354 () Bool (= .352 .353))
(define-fun .355 () Bool (not .354))
(define-fun .356 () (_ FP 11 53) b2713)
(define-fun .357 () (_ FP 11 53) (* .3 .10 .356))
(define-fun .358 () (_ FP 11 53) (* .3 .356 .356))
(define-fun .359 () (_ FP 11 53) (- .358))
(define-fun .360 () (_ FP 11 53) (+ .3 .301 .359))
(define-fun .361 () (_ FP 11 53) (/ .3 .360 .357))
(define-fun .362 () (_ FP 11 53) (+ .3 .356 .361))
(define-fun .363 () Bool (= .341 .362))
(define-fun .364 () Bool (not .363))
(define-fun .365 () (_ FP 11 53) (* .3 .362 .362))
(define-fun .366 () (_ FP 11 53) (- .365))
(define-fun .367 () (_ FP 11 53) (+ .3 .301 .366))
(define-fun .368 () (_ FP 11 53) b2738)
(define-fun .369 () Bool (= .367 .368))
(define-fun .370 () Bool (not .369))
(define-fun .371 () (_ FP 11 53) b2743)
(define-fun .372 () (_ FP 11 53) (* .3 .10 .371))
(define-fun .373 () (_ FP 11 53) (* .3 .371 .371))
(define-fun .374 () (_ FP 11 53) (- .373))
(define-fun .375 () (_ FP 11 53) (+ .3 .301 .374))
(define-fun .376 () (_ FP 11 53) (/ .3 .375 .372))
(define-fun .377 () (_ FP 11 53) (+ .3 .371 .376))
(define-fun .378 () Bool (= .356 .377))
(define-fun .379 () Bool (not .378))
(define-fun .380 () (_ FP 11 53) (* .3 .377 .377))
(define-fun .381 () (_ FP 11 53) (- .380))
(define-fun .382 () (_ FP 11 53) (+ .3 .301 .381))
(define-fun .383 () (_ FP 11 53) b2768)
(define-fun .384 () Bool (= .382 .383))
(define-fun .385 () Bool (not .384))
(define-fun .386 () (_ FP 11 53) b2773)
(define-fun .387 () (_ FP 11 53) (* .3 .10 .386))
(define-fun .388 () (_ FP 11 53) (* .3 .386 .386))
(define-fun .389 () (_ FP 11 53) (- .388))
(define-fun .390 () (_ FP 11 53) (+ .3 .301 .389))
(define-fun .391 () (_ FP 11 53) (/ .3 .390 .387))
(define-fun .392 () (_ FP 11 53) (+ .3 .386 .391))
(define-fun .393 () Bool (= .371 .392))
(define-fun .394 () Bool (not .393))
(define-fun .395 () (_ FP 11 53) (* .3 .392 .392))
(define-fun .396 () (_ FP 11 53) (- .395))
(define-fun .397 () (_ FP 11 53) (+ .3 .301 .396))
(define-fun .398 () (_ FP 11 53) b2798)
(define-fun .399 () Bool (= .397 .398))
(define-fun .400 () Bool (not .399))
(define-fun .401 () (_ FP 11 53) b2803)
(define-fun .402 () (_ FP 11 53) (* .3 .10 .401))
(define-fun .403 () (_ FP 11 53) (* .3 .401 .401))
(define-fun .404 () (_ FP 11 53) (- .403))
(define-fun .405 () (_ FP 11 53) (+ .3 .301 .404))
(define-fun .406 () (_ FP 11 53) (/ .3 .405 .402))
(define-fun .407 () (_ FP 11 53) (+ .3 .401 .406))
(define-fun .408 () Bool (= .386 .407))
(define-fun .409 () Bool (not .408))
(define-fun .410 () (_ FP 11 53) (* .3 .407 .407))
(define-fun .411 () (_ FP 11 53) (- .410))
(define-fun .412 () (_ FP 11 53) (+ .3 .301 .411))
(define-fun .413 () (_ FP 11 53) b2828)
(define-fun .414 () Bool (= .412 .413))
(define-fun .415 () Bool (not .414))
(define-fun .416 () (_ FP 11 53) (/ .3 .301 .129))
(define-fun .417 () (_ FP 11 53) (* .3 .10 .416))
(define-fun .418 () (_ FP 11 53) (* .3 .416 .416))
(define-fun .419 () (_ FP 11 53) (- .418))
(define-fun .420 () (_ FP 11 53) (+ .3 .301 .419))
(define-fun .421 () (_ FP 11 53) (/ .3 .420 .417))
(define-fun .422 () (_ FP 11 53) (+ .3 .416 .421))
(define-fun .423 () Bool (= .401 .422))
(define-fun .424 () Bool (not .423))
(define-fun .425 () (_ FP 11 53) (* .3 .10 .422))
(define-fun .426 () (_ FP 11 53) (* .3 .422 .422))
(define-fun .427 () (_ FP 11 53) (- .426))
(define-fun .428 () (_ FP 11 53) (+ .3 .301 .427))
(define-fun .429 () (_ FP 11 53) (/ .3 .428 .425))
(define-fun .430 () (_ FP 11 53) (+ .3 .422 .429))
(define-fun .431 () (_ FP 11 53) (* .3 .430 .430))
(define-fun .432 () (_ FP 11 53) (- .431))
(define-fun .433 () (_ FP 11 53) (+ .3 .301 .432))
(define-fun .434 () (_ FP 11 53) b2864)
(define-fun .435 () Bool (= .433 .434))
(define-fun .436 () Bool (not .435))
(define-fun .437 () (_ FP 11 53) b2874)
(define-fun .438 () Bool (= .428 .437))
(define-fun .439 () Bool (not .438))
(define-fun .440 () Bool (== .158 .158))
(define-fun .441 () Bool (not .440))
(define-fun .442 () Bool (== .158 .301))
(define-fun .443 () Bool (not .442))
(define-fun .444 () Bool (and .441 .443))
(define-fun .445 () Bool (== .14 .158))
(define-fun .446 () Bool (not .445))
(define-fun .447 () Bool (and .444 .446))
(define-fun .448 () Bool (<= .158 .428))
(define-fun .449 () Bool (not .448))
(define-fun .450 () Bool (and .447 .449))
(define-fun .451 () (_ FP 11 53) (- .428))
(define-fun .452 () Bool (= .437 .451))
(define-fun .453 () Bool (and .450 .452))
(define-fun .454 () Bool (and .439 .453))
(define-fun .455 () (_ FP 11 53) b388)
(define-fun .456 () Bool (<= .437 .455))
(define-fun .457 () Bool (not .456))
(define-fun .458 () Bool (and .454 .457))
(define-fun .459 () Bool (= .401 .430))
(define-fun .460 () Bool (and .458 .459))
(define-fun .461 () Bool (<= .158 .433))
(define-fun .462 () Bool (not .461))
(define-fun .463 () Bool (and .460 .462))
(define-fun .464 () (_ FP 11 53) (- .433))
(define-fun .465 () Bool (= .434 .464))
(define-fun .466 () Bool (and .463 .465))
(define-fun .467 () Bool (and .436 .466))
(define-fun .468 () Bool (<= .434 .455))
(define-fun .469 () Bool (not .468))
(define-fun .470 () Bool (and .467 .469))
(define-fun .471 () Bool (and .424 .470))
(define-fun .472 () Bool (<= .158 .412))
(define-fun .473 () Bool (not .472))
(define-fun .474 () Bool (and .471 .473))
(define-fun .475 () (_ FP 11 53) (- .412))
(define-fun .476 () Bool (= .413 .475))
(define-fun .477 () Bool (and .474 .476))
(define-fun .478 () Bool (and .415 .477))
(define-fun .479 () Bool (= .386 .401))
(define-fun .480 () Bool (and .478 .479))
(define-fun .481 () Bool (<= .413 .455))
(define-fun .482 () Bool (not .481))
(define-fun .483 () Bool (and .480 .482))
(define-fun .484 () Bool (and .409 .483))
(define-fun .485 () Bool (<= .158 .397))
(define-fun .486 () Bool (not .485))
(define-fun .487 () Bool (and .484 .486))
(define-fun .488 () (_ FP 11 53) (- .397))
(define-fun .489 () Bool (= .398 .488))
(define-fun .490 () Bool (and .487 .489))
(define-fun .491 () Bool (and .400 .490))
(define-fun .492 () Bool (= .371 .386))
(define-fun .493 () Bool (and .491 .492))
(define-fun .494 () Bool (and .394 .493))
(define-fun .495 () Bool (<= .398 .455))
(define-fun .496 () Bool (not .495))
(define-fun .497 () Bool (and .494 .496))
(define-fun .498 () Bool (<= .158 .382))
(define-fun .499 () Bool (not .498))
(define-fun .500 () Bool (and .497 .499))
(define-fun .501 () (_ FP 11 53) (- .382))
(define-fun .502 () Bool (= .383 .501))
(define-fun .503 () Bool (and .500 .502))
(define-fun .504 () Bool (and .385 .503))
(define-fun .505 () Bool (= .356 .371))
(define-fun .506 () Bool (and .504 .505))
(define-fun .507 () Bool (and .379 .506))
(define-fun .508 () Bool (<= .383 .455))
(define-fun .509 () Bool (not .508))
(define-fun .510 () Bool (and .507 .509))
(define-fun .511 () Bool (<= .158 .367))
(define-fun .512 () Bool (not .511))
(define-fun .513 () Bool (and .510 .512))
(define-fun .514 () (_ FP 11 53) (- .367))
(define-fun .515 () Bool (= .368 .514))
(define-fun .516 () Bool (and .513 .515))
(define-fun .517 () Bool (and .370 .516))
(define-fun .518 () Bool (= .341 .356))
(define-fun .519 () Bool (and .517 .518))
(define-fun .520 () Bool (and .364 .519))
(define-fun .521 () Bool (<= .368 .455))
(define-fun .522 () Bool (not .521))
(define-fun .523 () Bool (and .520 .522))
(define-fun .524 () Bool (<= .158 .352))
(define-fun .525 () Bool (not .524))
(define-fun .526 () Bool (and .523 .525))
(define-fun .527 () (_ FP 11 53) (- .352))
(define-fun .528 () Bool (= .353 .527))
(define-fun .529 () Bool (and .526 .528))
(define-fun .530 () Bool (and .355 .529))
(define-fun .531 () Bool (= .326 .341))
(define-fun .532 () Bool (and .530 .531))
(define-fun .533 () Bool (and .349 .532))
(define-fun .534 () Bool (<= .353 .455))
(define-fun .535 () Bool (not .534))
(define-fun .536 () Bool (and .533 .535))
(define-fun .537 () Bool (<= .158 .337))
(define-fun .538 () Bool (not .537))
(define-fun .539 () Bool (and .536 .538))
(define-fun .540 () (_ FP 11 53) (- .337))
(define-fun .541 () Bool (= .338 .540))
(define-fun .542 () Bool (and .539 .541))
(define-fun .543 () Bool (and .340 .542))
(define-fun .544 () Bool (= .311 .326))
(define-fun .545 () Bool (and .543 .544))
(define-fun .546 () Bool (and .334 .545))
(define-fun .547 () Bool (<= .338 .455))
(define-fun .548 () Bool (not .547))
(define-fun .549 () Bool (and .546 .548))
(define-fun .550 () Bool (<= .158 .322))
(define-fun .551 () Bool (not .550))
(define-fun .552 () Bool (and .549 .551))
(define-fun .553 () (_ FP 11 53) (- .322))
(define-fun .554 () Bool (= .323 .553))
(define-fun .555 () Bool (and .552 .554))
(define-fun .556 () Bool (and .325 .555))
(define-fun .557 () Bool (= .297 .311))
(define-fun .558 () Bool (and .556 .557))
(define-fun .559 () Bool (and .319 .558))
(define-fun .560 () Bool (<= .323 .455))
(define-fun .561 () Bool (not .560))
(define-fun .562 () Bool (and .559 .561))
(define-fun .563 () Bool (<= .158 .307))
(define-fun .564 () Bool (not .563))
(define-fun .565 () Bool (and .562 .564))
(define-fun .566 () (_ FP 11 53) (- .307))
(define-fun .567 () Bool (= .308 .566))
(define-fun .568 () Bool (and .565 .567))
(define-fun .569 () Bool (and .310 .568))
(define-fun .570 () Bool (<= .158 .285))
(define-fun .571 () Bool (not .570))
(define-fun .572 () Bool (and .569 .571))
(define-fun .573 () (_ FP 11 53) (- .285))
(define-fun .574 () Bool (= .294 .573))
(define-fun .575 () Bool (and .572 .574))
(define-fun .576 () Bool (and .296 .575))
(define-fun .577 () Bool (<= .294 .455))
(define-fun .578 () Bool (not .577))
(define-fun .579 () Bool (and .576 .578))
(define-fun .580 () Bool (= .258 .287))
(define-fun .581 () Bool (and .579 .580))
(define-fun .582 () Bool (<= .158 .290))
(define-fun .583 () Bool (not .582))
(define-fun .584 () Bool (and .581 .583))
(define-fun .585 () (_ FP 11 53) (- .290))
(define-fun .586 () Bool (= .291 .585))
(define-fun .587 () Bool (and .584 .586))
(define-fun .588 () Bool (and .293 .587))
(define-fun .589 () Bool (<= .291 .455))
(define-fun .590 () Bool (not .589))
(define-fun .591 () Bool (and .588 .590))
(define-fun .592 () Bool (and .281 .591))
(define-fun .593 () Bool (<= .158 .269))
(define-fun .594 () Bool (not .593))
(define-fun .595 () Bool (and .592 .594))
(define-fun .596 () (_ FP 11 53) (- .269))
(define-fun .597 () Bool (= .270 .596))
(define-fun .598 () Bool (and .595 .597))
(define-fun .599 () Bool (and .272 .598))
(define-fun .600 () Bool (= .243 .258))
(define-fun .601 () Bool (and .599 .600))
(define-fun .602 () Bool (<= .270 .455))
(define-fun .603 () Bool (not .602))
(define-fun .604 () Bool (and .601 .603))
(define-fun .605 () Bool (and .266 .604))
(define-fun .606 () Bool (<= .158 .254))
(define-fun .607 () Bool (not .606))
(define-fun .608 () Bool (and .605 .607))
(define-fun .609 () (_ FP 11 53) (- .254))
(define-fun .610 () Bool (= .255 .609))
(define-fun .611 () Bool (and .608 .610))
(define-fun .612 () Bool (and .257 .611))
(define-fun .613 () Bool (= .228 .243))
(define-fun .614 () Bool (and .612 .613))
(define-fun .615 () Bool (and .251 .614))
(define-fun .616 () Bool (<= .255 .455))
(define-fun .617 () Bool (not .616))
(define-fun .618 () Bool (and .615 .617))
(define-fun .619 () Bool (<= .158 .239))
(define-fun .620 () Bool (not .619))
(define-fun .621 () Bool (and .618 .620))
(define-fun .622 () (_ FP 11 53) (- .239))
(define-fun .623 () Bool (= .240 .622))
(define-fun .624 () Bool (and .621 .623))
(define-fun .625 () Bool (and .242 .624))
(define-fun .626 () Bool (= .213 .228))
(define-fun .627 () Bool (and .625 .626))
(define-fun .628 () Bool (and .236 .627))
(define-fun .629 () Bool (<= .240 .455))
(define-fun .630 () Bool (not .629))
(define-fun .631 () Bool (and .628 .630))
(define-fun .632 () Bool (<= .158 .224))
(define-fun .633 () Bool (not .632))
(define-fun .634 () Bool (and .631 .633))
(define-fun .635 () (_ FP 11 53) (- .224))
(define-fun .636 () Bool (= .225 .635))
(define-fun .637 () Bool (and .634 .636))
(define-fun .638 () Bool (and .227 .637))
(define-fun .639 () Bool (= .198 .213))
(define-fun .640 () Bool (and .638 .639))
(define-fun .641 () Bool (and .221 .640))
(define-fun .642 () Bool (<= .225 .455))
(define-fun .643 () Bool (not .642))
(define-fun .644 () Bool (and .641 .643))
(define-fun .645 () Bool (<= .158 .209))
(define-fun .646 () Bool (not .645))
(define-fun .647 () Bool (and .644 .646))
(define-fun .648 () (_ FP 11 53) (- .209))
(define-fun .649 () Bool (= .210 .648))
(define-fun .650 () Bool (and .647 .649))
(define-fun .651 () Bool (and .212 .650))
(define-fun .652 () Bool (= .183 .198))
(define-fun .653 () Bool (and .651 .652))
(define-fun .654 () Bool (and .206 .653))
(define-fun .655 () Bool (<= .210 .455))
(define-fun .656 () Bool (not .655))
(define-fun .657 () Bool (and .654 .656))
(define-fun .658 () Bool (<= .158 .194))
(define-fun .659 () Bool (not .658))
(define-fun .660 () Bool (and .657 .659))
(define-fun .661 () (_ FP 11 53) (- .194))
(define-fun .662 () Bool (= .195 .661))
(define-fun .663 () Bool (and .660 .662))
(define-fun .664 () Bool (and .197 .663))
(define-fun .665 () Bool (= .168 .183))
(define-fun .666 () Bool (and .664 .665))
(define-fun .667 () Bool (and .191 .666))
(define-fun .668 () Bool (<= .195 .455))
(define-fun .669 () Bool (not .668))
(define-fun .670 () Bool (and .667 .669))
(define-fun .671 () Bool (<= .158 .179))
(define-fun .672 () Bool (not .671))
(define-fun .673 () Bool (and .670 .672))
(define-fun .674 () (_ FP 11 53) (- .179))
(define-fun .675 () Bool (= .180 .674))
(define-fun .676 () Bool (and .673 .675))
(define-fun .677 () Bool (and .182 .676))
(define-fun .678 () Bool (= .154 .168))
(define-fun .679 () Bool (and .677 .678))
(define-fun .680 () Bool (and .176 .679))
(define-fun .681 () Bool (<= .180 .455))
(define-fun .682 () Bool (not .681))
(define-fun .683 () Bool (and .680 .682))
(define-fun .684 () Bool (<= .158 .164))
(define-fun .685 () Bool (not .684))
(define-fun .686 () Bool (and .683 .685))
(define-fun .687 () (_ FP 11 53) (- .164))
(define-fun .688 () Bool (= .165 .687))
(define-fun .689 () Bool (and .686 .688))
(define-fun .690 () Bool (and .167 .689))
(define-fun .691 () Bool (<= .158 .142))
(define-fun .692 () Bool (not .691))
(define-fun .693 () Bool (and .690 .692))
(define-fun .694 () (_ FP 11 53) (- .142))
(define-fun .695 () Bool (= .151 .694))
(define-fun .696 () Bool (and .693 .695))
(define-fun .697 () Bool (and .153 .696))
(define-fun .698 () Bool (<= .151 .455))
(define-fun .699 () Bool (not .698))
(define-fun .700 () Bool (and .697 .699))
(define-fun .701 () Bool (= .114 .144))
(define-fun .702 () Bool (and .700 .701))
(define-fun .703 () Bool (<= .158 .147))
(define-fun .704 () Bool (not .703))
(define-fun .705 () Bool (and .702 .704))
(define-fun .706 () (_ FP 11 53) (- .147))
(define-fun .707 () Bool (= .148 .706))
(define-fun .708 () Bool (and .705 .707))
(define-fun .709 () Bool (and .150 .708))
(define-fun .710 () Bool (<= .148 .455))
(define-fun .711 () Bool (not .710))
(define-fun .712 () Bool (and .709 .711))
(define-fun .713 () Bool (and .138 .712))
(define-fun .714 () Bool (<= .158 .125))
(define-fun .715 () Bool (not .714))
(define-fun .716 () Bool (and .713 .715))
(define-fun .717 () (_ FP 11 53) (- .125))
(define-fun .718 () Bool (= .126 .717))
(define-fun .719 () Bool (and .716 .718))
(define-fun .720 () Bool (and .128 .719))
(define-fun .721 () Bool (= .99 .114))
(define-fun .722 () Bool (and .720 .721))
(define-fun .723 () Bool (<= .126 .455))
(define-fun .724 () Bool (not .723))
(define-fun .725 () Bool (and .722 .724))
(define-fun .726 () Bool (<= .158 .32))
(define-fun .727 () Bool (not .726))
(define-fun .728 () Bool (and .725 .727))
(define-fun .729 () (_ FP 11 53) (- .32))
(define-fun .730 () Bool (= .33 .729))
(define-fun .731 () Bool (and .728 .730))
(define-fun .732 () Bool (and .122 .731))
(define-fun .733 () Bool (<= .158 .110))
(define-fun .734 () Bool (not .733))
(define-fun .735 () Bool (and .732 .734))
(define-fun .736 () (_ FP 11 53) (- .110))
(define-fun .737 () Bool (= .111 .736))
(define-fun .738 () Bool (and .735 .737))
(define-fun .739 () Bool (and .113 .738))
(define-fun .740 () Bool (= .84 .99))
(define-fun .741 () Bool (and .739 .740))
(define-fun .742 () Bool (and .107 .741))
(define-fun .743 () Bool (<= .111 .455))
(define-fun .744 () Bool (not .743))
(define-fun .745 () Bool (and .742 .744))
(define-fun .746 () Bool (<= .158 .95))
(define-fun .747 () Bool (not .746))
(define-fun .748 () Bool (and .745 .747))
(define-fun .749 () (_ FP 11 53) (- .95))
(define-fun .750 () Bool (= .96 .749))
(define-fun .751 () Bool (and .748 .750))
(define-fun .752 () Bool (and .98 .751))
(define-fun .753 () Bool (= .57 .84))
(define-fun .754 () Bool (and .752 .753))
(define-fun .755 () Bool (and .92 .754))
(define-fun .756 () Bool (<= .158 .80))
(define-fun .757 () Bool (not .756))
(define-fun .758 () Bool (and .755 .757))
(define-fun .759 () (_ FP 11 53) (- .80))
(define-fun .760 () Bool (= .81 .759))
(define-fun .761 () Bool (and .758 .760))
(define-fun .762 () Bool (<= .96 .455))
(define-fun .763 () Bool (not .762))
(define-fun .764 () Bool (and .761 .763))
(define-fun .765 () Bool (and .83 .764))
(define-fun .766 () Bool (<= .158 .68))
(define-fun .767 () Bool (not .766))
(define-fun .768 () Bool (and .765 .767))
(define-fun .769 () (_ FP 11 53) (- .68))
(define-fun .770 () Bool (= .69 .769))
(define-fun .771 () Bool (and .768 .770))
(define-fun .772 () Bool (and .71 .771))
(define-fun .773 () Bool (= .42 .57))
(define-fun .774 () Bool (and .772 .773))
(define-fun .775 () Bool (and .65 .774))
(define-fun .776 () Bool (<= .69 .455))
(define-fun .777 () Bool (not .776))
(define-fun .778 () Bool (and .775 .777))
(define-fun .779 () Bool (<= .158 .53))
(define-fun .780 () Bool (not .779))
(define-fun .781 () Bool (and .778 .780))
(define-fun .782 () (_ FP 11 53) (- .53))
(define-fun .783 () Bool (= .54 .782))
(define-fun .784 () Bool (and .781 .783))
(define-fun .785 () Bool (and .56 .784))
(define-fun .786 () Bool (= .21 .42))
(define-fun .787 () Bool (and .785 .786))
(define-fun .788 () Bool (and .50 .787))
(define-fun .789 () Bool (<= .54 .455))
(define-fun .790 () Bool (not .789))
(define-fun .791 () Bool (and .788 .790))
(define-fun .792 () Bool (<= .158 .38))
(define-fun .793 () Bool (not .792))
(define-fun .794 () Bool (and .791 .793))
(define-fun .795 () (_ FP 11 53) (- .38))
(define-fun .796 () Bool (= .39 .795))
(define-fun .797 () Bool (and .794 .796))
(define-fun .798 () Bool (and .41 .797))
(define-fun .799 () Bool (= .9 .21))
(define-fun .800 () Bool (and .798 .799))
(define-fun .801 () Bool (and .35 .800))
(define-fun .802 () Bool (and .29 .801))
(define-fun .803 () Bool (<= .39 .455))
(define-fun .804 () Bool (not .803))
(define-fun .805 () Bool (and .802 .804))
(define-fun .806 () Bool (= .9 .18))
(define-fun .807 () Bool (and .805 .806))
(define-fun .808 () Bool (and .20 .807))
(define-fun .809 () Bool (<= .33 .455))
(define-fun .810 () Bool (not .809))
(define-fun .811 () Bool (and .808 .810))
(assert .811)
(check-sat)
